s td 9 12 20
b 1 1 5 6 7 8 9 11 12 13 15 17 18
b 2 5 6 7 8 9 10 11 12 13 15 17 18
b 3 4 5 6 7 8 9 10 11 12 13 15 17
b 4 2 4 5 6 7 9 10 11 13 15 17
b 5 2 4 5 10 11 13 14 15 17
b 6 1 5 6 7 8 11 12 13 15 16 17 18
b 7 1 3 5 6 7 11 12 13 16 17
b 8 1 5 6 7 12 13 16 17 19
b 9 1 5 7 11 12 13 16 17 18 20
1 2
1 6
2 3
3 4
4 5
6 7
6 8
6 9
